Copyright (C) 2013-2015, Filipe Brandao
Build (method = -2)
  #dp: 13364
  Step-3' Graph: 158 vertices and 5727 arcs (0.02s)
  Step-4' Graph: 158 vertices and 5727 arcs (0.02s)
  #V4/#V3 = 1.00
  #A4/#A3 = 1.00
Ready! (0.02s)
Optimize a model with 270 rows, 5728 columns and 16874 nonzeros
Found heuristic solution: objective 261
Presolve removed 39 rows and 50 columns
Presolve time: 0.02s
Presolved: 231 rows, 5678 columns, 16737 nonzeros
Variable types: 0 continuous, 5678 integer (895 binary)
Optimize a model with 231 rows, 5678 columns and 16737 nonzeros
Presolved: 231 rows, 5678 columns, 16737 nonzeros

Root barrier log...

Ordering time: 0.00s

Barrier statistics:
 AA' NZ     : 1.076e+04
 Factor NZ  : 1.684e+04 (roughly 3 MBytes of memory)
 Factor Ops : 1.689e+06 (less than 1 second per iteration)
 Threads    : 1

                  Objective                Residual
Iter       Primal          Dual         Primal    Dual     Compl     Time
   0   7.43469275e+03 -4.93269514e+04  8.56e+04 4.93e-02  4.81e+01     0s
   1   2.09122450e+03 -1.72822058e+04  1.04e+04 7.77e-16  6.79e+00     0s
   2   6.95504004e+02 -7.78758875e+03  1.40e+03 2.57e-02  1.35e+00     0s
   3   4.41777288e+02 -2.09002240e+03  2.47e+02 4.13e-03  2.97e-01     0s
   4   3.06759730e+02 -5.10335266e+02  6.40e+01 8.54e-04  8.43e-02     0s
   5   3.06272126e+02 -3.61106707e+02  5.59e+01 6.44e-04  6.80e-02     0s
   6   2.61658887e+02 -1.88130644e+02  3.33e+01 2.84e-04  4.44e-02     0s
   7   2.23444102e+02 -9.11800575e+01  1.77e+01 1.14e-04  2.99e-02     0s
   8   1.77450349e+02  3.71207811e-02  7.25e+00 1.30e-15  1.64e-02     0s
   9   1.42633034e+02  6.08579313e+01  2.44e+00 1.04e-15  7.39e-03     0s
  10   1.36886286e+02  8.24624964e+01  1.85e+00 1.07e-15  4.92e-03     0s
  11   1.31744618e+02  9.16484307e+01  1.22e+00 1.36e-15  3.60e-03     0s
  12   1.27858075e+02  9.63772635e+01  7.46e-01 1.71e-15  2.81e-03     0s
  13   1.26296175e+02  1.03002142e+02  5.10e-01 1.79e-15  2.07e-03     0s
  14   1.24756992e+02  1.09785175e+02  2.50e-01 1.68e-15  1.32e-03     0s
  15   1.24013304e+02  1.14130795e+02  1.55e-01 1.51e-15  8.70e-04     0s
  16   1.23361726e+02  1.17148794e+02  9.06e-02 1.48e-15  5.46e-04     0s
  17   1.22807355e+02  1.19454617e+02  3.38e-02 1.26e-15  2.94e-04     0s
  18   1.22767509e+02  1.19669070e+02  3.00e-02 1.33e-15  2.72e-04     0s
  19   1.22613342e+02  1.20585218e+02  2.01e-02 1.41e-15  1.78e-04     0s
  20   1.22460791e+02  1.21288458e+02  1.09e-02 1.32e-15  1.03e-04     0s
  21   1.22388814e+02  1.21510775e+02  6.73e-03 1.60e-15  7.70e-05     0s
  22   1.22357013e+02  1.21957435e+02  4.75e-03 1.21e-15  3.50e-05     0s
  23   1.22272205e+02  1.22019467e+02  1.78e-03 1.55e-15  2.22e-05     0s
  24   1.22251523e+02  1.22176485e+02  1.18e-03 1.32e-15  6.58e-06     0s
  25   1.22242713e+02  1.22195391e+02  7.68e-04 1.18e-15  4.15e-06     0s
  26   1.22217904e+02  1.22210368e+02  8.01e-05 1.49e-15  6.61e-07     0s
  27   1.22213210e+02  1.22213190e+02  2.10e-12 1.05e-15  1.81e-09     0s
  28   1.22213198e+02  1.22213198e+02  1.18e-12 9.23e-16  1.81e-12     0s

Barrier solved model in 28 iterations and 0.07 seconds
Optimal objective 1.22213198e+02


Root relaxation: objective 1.222132e+02, 887 iterations, 0.08 seconds

    Nodes    |    Current Node    |     Objective Bounds      |     Work
 Expl Unexpl |  Obj  Depth IntInf | Incumbent    BestBd   Gap | It/Node Time

     0     0  122.21320    0   52  261.00000  122.21320  53.2%     -    0s
H    0     0                     124.0000000  122.21320  1.44%     -    0s
H    0     0                     123.0000000  122.21320  0.64%     -    0s

Explored 0 nodes (3212 simplex iterations) in 0.31 seconds
Thread count was 1 (of 4 available processors)

Optimal solution found (tolerance 0.00e+00)
Best objective 1.230000000000e+02, best bound 1.230000000000e+02, gap 0.0%
Preprocessing time: 0.03 seconds
Gurobi run time: 0.31 seconds
Total run time: 0.34 seconds
Objective: 123
Solution:
1 x [i=1, i=74]
1 x [i=1, i=98, i=108]
2 x [i=1, i=102, i=104]
2 x [i=2, i=73]
3 x [i=3, i=72]
2 x [i=3, i=99, i=105]
1 x [i=4, i=71]
2 x [i=5, i=70]
3 x [i=6, i=69]
1 x [i=6, i=70]
2 x [i=7, i=68]
1 x [i=8, i=67]
1 x [i=9, i=66]
1 x [i=9, i=95, i=103]
1 x [i=9, i=97, i=101]
1 x [i=9, i=112]
3 x [i=10, i=88, i=109]
2 x [i=10, i=92, i=105]
2 x [i=10, i=96, i=101]
1 x [i=11, i=65]
1 x [i=11, i=87, i=109]
4 x [i=12, i=64]
1 x [i=13, i=63]
1 x [i=14, i=62]
1 x [i=14, i=89, i=104]
2 x [i=14, i=95, i=98]
3 x [i=15, i=61]
1 x [i=16, i=60]
1 x [i=16, i=83, i=108]
1 x [i=17, i=59]
2 x [i=18, i=58]
1 x [i=19, i=78, i=111]
1 x [i=19, i=82, i=106]
1 x [i=19, i=84, i=104]
1 x [i=19, i=85, i=103]
1 x [i=19, i=86]
1 x [i=20, i=57]
1 x [i=21, i=55]
2 x [i=21, i=73, i=112]
2 x [i=21, i=91, i=94]
1 x [i=22, i=54]
1 x [i=23, i=53]
2 x [i=23, i=54]
2 x [i=23, i=90, i=93]
1 x [i=24, i=52]
3 x [i=25, i=51]
1 x [i=25, i=83, i=98]
1 x [i=26, i=77, i=104]
1 x [i=27, i=50]
1 x [i=27, i=71, i=109]
1 x [i=27, i=81, i=98]
2 x [i=27, i=82, i=97]
1 x [i=28, i=49]
3 x [i=29, i=47]
2 x [i=30, i=47]
2 x [i=31, i=46]
2 x [i=31, i=75, i=100]
2 x [i=32, i=45]
2 x [i=33, i=44]
4 x [i=34, i=43]
1 x [i=34, i=44]
2 x [i=35, i=42]
2 x [i=36, i=40]
1 x [i=36, i=41]
2 x [i=37, i=39]
1 x [i=37, i=63, i=106]
2 x [i=37, i=79, i=89]
1 x [i=38, i=38]
1 x [i=41, i=56, i=110]
1 x [i=41, i=58, i=107]
1 x [i=41, i=80, i=83]
1 x [i=41, i=94]
1 x [i=42, i=58, i=106]
1 x [i=42, i=61, i=103]
2 x [i=42, i=78, i=85]
2 x [i=45, i=76, i=84]
1 x [i=48, i=48, i=111]
1 x [i=49, i=59, i=97]
1 x [i=52, i=75, i=77]
1 x [i=77, i=80, i=83, i=107]
